========================================================== 
File name: C:\DEGR\assets\definitions\MSRCPSP_Gen\100_10_64_5_D.def
Creation date: Wed May 03 10:38:01 CEST 2023
Website: http://imopse.ii.pwr.edu.pl/ 
Reference: 
Myszkowski P. B., Skowronski M. E., Olech L., Oslizlo K., 
Hybrid Ant Colony Optimization in solving Multi-Skill Resource-Constrained Project Scheduling Problem, 
Soft Computing, DOI: DOI 10.1007/s00500-014-1455-x 
========================================================== 
General characteristics: 
Tasks: 100
Resources: 10
Precedence relations: 63
Number of skill types: 5
========================================================== 
ResourceID 	 Salary 	 Skills 
1	 	 	16.2	 	 Q2: 1 	  Q3: 1 	  Q0: 0 	  Q4: 0 	 
2	 	 	90.3	 	 Q1: 1 	  Q4: 0 	  Q2: 0 	  Q3: 0 	 
3	 	 	22.2	 	 Q1: 0 	  Q4: 0 	  Q0: 0 	  Q2: 3 	 
4	 	 	58.4	 	 Q4: 2 	  Q2: 3 	  Q3: 3 	  Q0: 0 	 
5	 	 	77.4	 	 Q3: 2 	  Q1: 0 	 
6	 	 	16.6	 	 Q4: 3 	 
7	 	 	18.5	 	 Q0: 0 	  Q3: 0 	 
8	 	 	77.2	 	 Q3: 1 	 
9	 	 	47.1	 	 Q4: 1 	  Q3: 3 	 
10	 	 	58.8	 	 Q3: 1 	  Q0: 0 	  Q4: 2 	  Q2: 2 	 
========================================================== 
TaskID 	 Duration 	 Skill 	 Predecessor IDs 
1	26	Q3:	2
2	12	Q4:	2
3	19	Q3:	3
4	30	Q4:	0
5	36	Q3:	0
6	28	Q3:	3
7	14	Q2:	0	2
8	32	Q3:	2
9	22	Q2:	0
10	40	Q3:	3
11	9	Q1:	1
12	16	Q3:	2
13	39	Q3:	0	3
14	26	Q0:	0
15	35	Q4:	3
16	35	Q0:	0
17	39	Q1:	1	10
18	19	Q3:	1
19	26	Q4:	0
20	13	Q3:	0
21	35	Q2:	1
22	15	Q3:	1
23	13	Q4:	3
24	13	Q4:	1
25	19	Q1:	0	12
26	38	Q1:	1
27	31	Q4:	3
28	30	Q4:	3
29	38	Q2:	3
30	39	Q3:	1	28
31	32	Q2:	2
32	18	Q2:	0	18
33	39	Q2:	0	22	16
34	14	Q0:	0
35	37	Q3:	3	30
36	17	Q3:	2
37	37	Q4:	0	19
38	28	Q2:	1	30
39	27	Q4:	3	28
40	11	Q1:	1
41	40	Q0:	0
42	30	Q3:	2
43	12	Q4:	2
44	12	Q4:	2
45	20	Q2:	3
46	22	Q3:	1
47	14	Q3:	3	38	40
48	17	Q4:	2
49	31	Q3:	2	37	23
50	20	Q0:	0
51	27	Q4:	2	28
52	24	Q2:	2
53	28	Q4:	0
54	22	Q4:	2	40	17
55	27	Q4:	1	14
56	11	Q2:	1
57	10	Q4:	0	52
58	22	Q3:	0	10	37
59	20	Q3:	2
60	39	Q3:	0	20
61	31	Q1:	1	14
62	19	Q2:	3	2
63	15	Q2:	1
64	20	Q2:	0
65	40	Q4:	0
66	11	Q4:	2	39	19
67	21	Q4:	3
68	14	Q2:	1	5
69	19	Q0:	0	52
70	33	Q4:	3	41
71	16	Q3:	2
72	24	Q4:	1	61	23
73	35	Q4:	0
74	26	Q0:	0	46
75	18	Q4:	1	13
76	33	Q3:	0
77	40	Q1:	0	14	27	40
78	18	Q3:	3	15	58
79	12	Q4:	3	3
80	28	Q3:	1	55
81	26	Q1:	0
82	18	Q4:	1	46
83	12	Q4:	2	67
84	22	Q4:	0	81	9
85	29	Q2:	2	56
86	24	Q4:	2
87	17	Q4:	0	14
88	20	Q1:	0	62	47	77
89	17	Q4:	0	41
90	27	Q3:	1	21
91	16	Q0:	0	42	7
92	19	Q2:	3	85
93	22	Q4:	3
94	19	Q1:	1	11
95	30	Q2:	1	30
96	19	Q3:	2
97	18	Q3:	0	58
98	31	Q0:	0	88	18
99	28	Q4:	0
100	23	Q0:	0	82	19
========================================================== 